c This Formular is generated by mcnf
c
c    horn? no 
c    forced? no 
c    mixed sat? no 
c    clause length = 3 
c
p cnf 20  91 
 7 8 2 0
-18 7 15 0
13 1 14 0
-2 -19 1 0
13 19 8 0
-15 18 -10 0
15 -14 -9 0
-19 18 -9 0
2 -3 -20 0
-12 -7 13 0
-8 9 20 0
12 -1 -20 0
5 -15 4 0
6 -2 -1 0
-20 -3 7 0
8 -6 -9 0
-16 -13 19 0
9 -15 -7 0
9 -17 1 0
7 18 20 0
9 -16 11 0
-13 7 -3 0
-14 -9 8 0
-13 4 -1 0
-14 -10 -13 0
6 12 -10 0
18 10 -20 0
2 -19 1 0
15 18 -6 0
-1 -19 7 0
13 1 -15 0
-19 -4 -7 0
-12 -14 16 0
17 -10 -7 0
19 -17 11 0
8 3 -6 0
19 4 16 0
-3 14 -1 0
-7 3 5 0
-5 3 18 0
1 -16 -11 0
%
0

52 28 44 85 45 91 89 43 55 3 79 71 61 54 16 90 60 81 71 97
